Min
1Xz1 + 2Xz2 + 3Xz3 + 4Xz4 + 5Xz5
Subject To
1Xg1 >= 1
1Xh1 >= 1
1Xi1 >= 1
1Xj1 >= 1
2Xk2-2Xg2-2Xh2-2Xi2 >= 1
2Xl2-2Xh2-2Xi2-2Xj2 >= 1
2Xm2-2Xi2-2Xj2 >= 1
3Xn3-3Xl3-3Xm3 >= 1
3Xo3-3Xh3-3Xk3 >= 1
2Xp2-2Xg2 >= 1
4Xq4-4Xn4 >= 1
5Xz5-5Xo5-5Xp5-5Xq5 >= 1
Binary
Xg1
Xm2
Xh1
Xi1
Xq4
Xk2
Xj1
Xz5
Xg2
Xh2
Xn3
Xi2
Xl2
Xj2
Xl3
Xm3
Xo3
Xh3
Xq5
Xk3
Xp2
Xn4
Xo5
Xp5
End
